(set-logic QF_SLIA)
(declare-fun var0 () Int)
(declare-fun var1 () Int)
(declare-fun var2 () String)
(declare-fun var3 () String)
(declare-fun var4 () Int)
(declare-fun var5 () Int)
(declare-fun var6 () String)
(declare-fun var7 () Int)
(declare-fun var8 () String)
(declare-fun var9 () String)
(declare-fun var10 () Int)
(declare-fun var11 () Int)
(declare-fun var12 () String)
(declare-fun var13 () String)
(declare-fun var14 () String)
(declare-fun var15 () Int)
(declare-fun var16 () String)
(declare-fun var17 () String)
(declare-fun var18 () Int)
(declare-fun var19 () String)
(declare-fun var20 () String)
(assert (or (>= var0 var1) (str.in.re var2 re.allchar)))
(assert (str.suffixof (str.++ (str.substr var3 var4 var5) (str.substr var6 var7 var1)) (str.++ var8 var9)))
(assert (str.contains (str.at (str.substr "?5PWcK$@HpO&5kzXur1]?_te<`=""nDx(-Ce[)D:!K`0PrfR::J=RU|S`se8>}JCLQ.|4K?OAW0q#~H*`AxddPo[R-7_I" var10 var11) (str.to.int var9)) (str.substr (str.replace var6 "<RvTb8.$o]r""BA(iZ&se7tsk-@0Qq<E%3JH2CQXse2z;$ddLK+aD.r@0;*y9v^I3rY*ridnJriNUX=C=W17@0h:_c!q4sM""c*@~n2rOOX0Lc(%Q&wm+L2*=,x0yH,j6@4obdi=1.%cgUZ/?3q3}kF1V_2,PYGSt{mOdbS<.1aQTs%>xUsDrI""6GDm(NH.L[;)9}z=8" var12) (str.indexof var13 var3 151) (str.to.int var3))))
(assert (> (str.len var14) (str.to.int var3)))
(assert (str.in.re (str.at (str.at var13 var15) (str.to.int var16)) (re.union re.allchar re.allchar)))
(assert (str.contains (str.substr (str.at var17 var18) (str.len var19) (str.to.int var20)) (str.replace (str.replace var12 var8 var20) (str.++ "+~6+P&HVD'4+q^!MHi93:ZU\\I4<$IN%%Hd?&?v=1)#6}[/\\aYhr=1yU%#mYrg*>rYcU}mVa8H=4]4ViCxtTp:+9,p6o,/TvL5~T-gP;(ycs}8B%NQ.C)0$EM~UIuiN-]m8<g>4nU-D(+$TmVlsh2Q>N+R4[P9Kn,O5+W5E>hg>dk?P""'\\U,Qu-i\\`Ok^Vvz""-2%Sh]`.fCklE=-9=bYM-$S^rt[3v&c_hwR\\8z""+`E_K7r?-[5[GW3bTXKoz}=R=ppn*;4AZpMjE5|-!8B0'v>!Vs/;Q#~53x7[z5" "VXu4s2e1:a5ZX.4T+qfA2Td^uKF6P^{G*a2WAW\\;FM'Bo\\<PC}tT|7H9l7lV{|>91q_7dkP_b^8V,3'm7l}hx?;5:u~rR[j:7}un"",x7j,]4QtyAM.Z(>wp2A$]<?Y+?oMezSn\\X,g6pWB]ToCQOGOG3}Nzsk\\AV^Mg36=7gP0k@:tf)}#5\\,P8ZN&.X?i{CV\\0BOPeO<Yd,|U.vX.X""%-q~9au""3gR3E[NQBpMxs&!4h9jQDQknoPm`|ueZ4qy!t#MdGmlMn-c'qR`7'U!Le+BS.VpyU(zV,~|spFO}ZMv@b5\\:n=c@vqn5yy69k\\G\\qwNiKs;r;nMv)7}5k?Y3dM<R,bR^^u6;|&N*wBT=9jmw}VGBl/_lUN).*tUisY_,@bF/\\U[I-eR:>*W2fI{cOp7Q}0c>%wQ]o[&JdW]vVaMUWypqI^)S6=U!*") (str.substr var14 var18 var5))))
(assert (str.prefixof var17 var12))
(assert (= (str.at (str.substr var9 146 var11) (str.len var9)) (str.substr (str.substr "QpugOiz4l{.)|F&{I\\uHZJn&Vy{Ca\\`Fi/7v`P/:wHY.JXbN%:n_-k9" var0 var18) (str.indexof var19 "V\\?'xQe,k3""-+!CZ*vsGIh6ox&gt$_dal7@ey)6kC;GVwq}j]k*bj/o=.'~&$(,?&1?#qPf$Y`}#P=z}WkK)]jv(ng.$q!@U7;#o'k%;(-pGbBtS+D7""AB9JFOi(F<$yxNzmR/='@YX}*!L7s+TKmLb0Yr%AAd/mpBq?okDHgVFkc)0/1{{Oo'yQ?W)wq:FkfD&I\\oeq3Zl<uYXL^jdE""HCAPmyk!cJ`|YWvER""W^:F=`M$IWr(#u[Q,a\\!M/DW%%{8Txw[!R(z>7rLCE+7>E^!X'F-x=Dr*w-~j5GZ*oCYIZOAlXX(3&u[P%0tB/'&92F=Y/:{b,51D-s~|C~&l8G1ig$nPyZNRGRADPu1yU0gQ{_$5o;x-uqM]9" var18) (str.to.int var3))))
(assert (and (< var5 var11) (>= (str.to.int var8) (str.len var2))))
(assert (> (str.len var6) (str.to.int "&`VR7yoj}sKgRjK')C/UO'S_[+5sW\\Hs$w]sx`-;`R5rmc`v(.(}6RetK{WCFe|]l.,1o\\O}/GHcvIS'1ly1h++6{3gkEbPn*^sBN}2).T*>~JoEW$]M\\hZic&HkLIHr7IgwJ0o2Z7jR*`_=wcXVS\\K\\*uE""e}c9Yp1)i.Blm_&uYb98SpDoMw>$Z[.)_!DH1'""jkl%6hbiv$)fk~,Jy+ZnP(u~4YJiJiHPqWL/Q'/0blO4C643FmUJ[""fWt(+7N())?5wxH[V6h->J8eS.01a1QIa)s""7\\_3jRJ|B8QgT!48q'1x5kVuC.J)M^8ddm*bMto|y=|aMr|{8ht:vw|>H!%E`2sna9NE^l+bZ,wuKJew#:p|bT!^8qer^5SY]UlPz4(N:'2//J)-AUu>wKhj5#{_q?JuD9EV|&.kTj5iEkYH:""W|Sc[>=x&<e#mtuPjF""!E%e'M-D")))
(assert (str.suffixof (str.++ (str.at var13 var11) (str.++ (str.substr var12 var4 var5) (str.replace var16 var8 var13))) (str.replace var3 var9 "1uQ:f>Z*d*GDfh+aC~g4=d.=_""?a8+~]$|%ZtaAi,K,9JcmFIJ.}KO[VNEORy]ecqrvnJZJ/_QSe{\\^:uw6OGHUN)$76{;j!JwoLEG\\%e6@1[.0nP""?eH.c<F6,k2HV|AMKk#dT$I-]81969QE/FZPdki{^OuHAkZ:s}1fkIhK+;k8gUORK{x\\XyT*-xCbT5.B:\\HqZq_Fv.=Ktq6VNIXq\\BX+k%5km)R6QG^|#z9Ie.U/rC`CR,)@MF[OhgqQrtEmf{M.B[.^hrqkJL^re=|!9@u\\~)\\bF%b_G&&r(q@E,_i*h@M?-2ju}Z5Bn7bRm7xOh68^l]&L9@Uc`lTIsGRk`;ti9CWKfxA_HDhAcHraO9W6L(9{d5*,(N{YJ,RGbRz'WbqH3{W:5I=#T4mRBK4Dd7nd[fsqCiig]@")))
(assert (< (str.len (str.replace var20 var14 var6)) (str.to.int (str.substr var20 var1 var4))))
(assert (not (= var3 var2)))
(check-sat)